language ESSENCE' 1.0
letting w be 7
letting n be 49
letting noCrates be 1
letting noGoals be 1
letting pInit be 11
letting stps be 7
letting crates be [24]
letting goals be [31]
letting noWalls be 24
letting walls be [0, 1, 2, 3, 4, 5, 6, 7, 13, 14, 20, 21, 27, 28, 34, 35, 41, 42, 43, 44, 45, 46, 47, 48]